; QF_LIA benchmark: system_18
(set-logic QF_LIA)
(declare-fun v0 () Int)
(declare-fun v1 () Int)
(declare-fun v2 () Int)
(assert (= (+ (* -2 v0) (* 4 v1) (* -5 v2)) 43))
(assert (>= (+ (* 3 v0) (* -1 v1) (* 2 v2)) 32))
(assert (= (+ (* -5 v0) (* 2 v1) (* 1 v2)) 4))
(assert (>= (+ (* -4 v0) (* 2 v1) (* 2 v2)) -41))
(assert (>= (+ (* 4 v1) (* -3 v2)) -42))
(assert (= (+ (* -1 v0) (* 4 v1) (* 5 v2)) 24))
(assert (<= (+ (* 1 v1) (* 4 v2)) 17))
(assert (>= (+ (* 2 v0) (* 3 v1) (* 4 v2)) 5))
(check-sat)
(exit)
